2
1000 2
47
150 1 2
151 1 3
152 1 2
153 1 1
154 1 3
155 1 2
156 1 1
157 1 3
158 1 1
159 1 4
160 1 4
161 1 2
162 1 1
163 1 1
164 1 3
165 1 1
166 1 3
167 1 4
168 1 2
169 1 1
170 1 1
171 1 3
172 1 1
173 1 2
174 1 1
175 1 3
177 1 2
178 1 2
179 1 3
180 1 4
181 1 3
182 1 3
183 1 3
184 1 4
186 1 3
187 1 1
188 1 6
189 1 2
190 1 1
191 1 4
193 1 3
194 1 4
195 1 3
196 1 5
197 1 3
198 1 5
199 1 1
